maximize cost: 17 x2 + 17 x3 + 13 xc + 48 x15
 + 8 x16 + 5 x17 + 11 x18 + 12 x1f + 12 x20
 + 23 x29 + 5 x32 + 5 x33 + 6 x74 + 5 x34
 + 5 x35 + 6 x39 + 6 x3a + 6 x6c + 5 x3b
 + 5 x3c + 6 x40 + 6 x41 + 6 x66 + 5 x42
 + 5 x43 + 6 x47 + 6 x48 + 6 x62 + 5 x49
 + 5 x4a + 7 x4e + 7 x4f + 6 x5d + 5 x50
 + 5 x51 + 7 x55 + 7 x56 + 5 x58 + 5 x59
 + 3 x83 + 10 x86 + 13 x87 + 6 x8c + 48 x91
 + 8 x92 + 5 x93 + 11 x94 + 12 x9b + 12 x9c
 + 23 xa5 + 5 xae + 5 xaf + 6 xf0 + 5 xb0
 + 5 xb1 + 6 xb5 + 6 xb6 + 6 xe8 + 5 xb7
 + 5 xb8 + 6 xbc + 6 xbd + 6 xe2 + 5 xbe
 + 5 xbf + 6 xc3 + 6 xc4 + 6 xde + 5 xc5
 + 5 xc6 + 7 xca + 7 xcb + 6 xd9 + 5 xcc
 + 5 xcd + 7 xd1 + 7 xd2 + 5 xd4 + 5 xd5
 + 3 xff + 10 x102 + 13 x103 + 6 x108 + 48 x10d
 + 8 x10e + 5 x10f + 11 x110 + 12 x117 + 12 x118
 + 23 x121 + 5 x12a + 5 x12b + 6 x16c + 5 x12c
 + 5 x12d + 6 x131 + 6 x132 + 6 x164 + 5 x133
 + 5 x134 + 6 x138 + 6 x139 + 6 x15e + 5 x13a
 + 5 x13b + 6 x13f + 6 x140 + 6 x15a + 5 x141
 + 5 x142 + 7 x146 + 7 x147 + 6 x155 + 5 x148
 + 5 x149 + 7 x14d + 7 x14e + 5 x150 + 5 x151
 + 3 x17b + 10 x17e + 13 x17f + 6 x184 + 48 x189
 + 8 x18a + 5 x18b + 11 x18c + 12 x193 + 12 x194
 + 23 x19d + 5 x1a6 + 5 x1a7 + 6 x1e8 + 5 x1a8
 + 5 x1a9 + 6 x1ad + 6 x1ae + 6 x1e0 + 5 x1af
 + 5 x1b0 + 6 x1b4 + 6 x1b5 + 6 x1da + 5 x1b6
 + 5 x1b7 + 6 x1bb + 6 x1bc + 6 x1d6 + 5 x1bd
 + 5 x1be + 7 x1c2 + 7 x1c3 + 6 x1d1 + 5 x1c4
 + 5 x1c5 + 7 x1c9 + 7 x1ca + 5 x1cc + 5 x1cd
 + 3 x1f7 + 10 x1fa + 13 x1fb + 6 x200 + 48 x205
 + 8 x206 + 5 x207 + 11 x208 + 12 x20f + 12 x210
 + 23 x219 + 5 x222 + 5 x223 + 6 x264 + 5 x224
 + 5 x225 + 6 x229 + 6 x22a + 6 x25c + 5 x22b
 + 5 x22c + 6 x230 + 6 x231 + 6 x256 + 5 x232
 + 5 x233 + 6 x237 + 6 x238 + 6 x252 + 5 x239
 + 5 x23a + 7 x23e + 7 x23f + 6 x24d + 5 x240
 + 5 x241 + 7 x245 + 7 x246 + 5 x248 + 5 x249
 + 3 x273 + 3 x276 + 8 x277 + 7 x279 + 7 x27a
 + 5 x27b + 5 x27c + 6 x2e4 + 6 x280 + 48 x284
 + 8 x285 + 5 x286 + 11 x287 + 12 x28e + 12 x28f
 + 23 x298 + 5 x2a1 + 5 x2a2 + 6 x2c9 + 5 x2a3
 + 5 x2a4 + 6 x2a8 + 6 x2a9 + 6 x2c3 + 5 x2aa
 + 5 x2ab + 6 x2af + 6 x2b0 + 6 x2bf + 5 x2b1
 + 5 x2b2 + 6 x2b6 + 6 x2b7 + 6 x2bd + 5 x2b8
 + 5 x2b9 + 3 x2d5 + 3 x2d8 + 8 x2d9 + 7 x2db
 + 7 x2dc + 5 x2dd + 5 x2de + 11 x2f4 + 11 x2f5
 + 24 x2fe + 5 x307 + 5 x308 + 6 x349 + 5 x309
 + 5 x30a + 6 x30e + 6 x30f + 6 x341 + 5 x310
 + 5 x311 + 6 x315 + 6 x316 + 6 x33b + 5 x317
 + 5 x318 + 6 x31c + 6 x31d + 6 x337 + 5 x31e
 + 5 x31f + 7 x323 + 7 x324 + 6 x332 + 5 x325
 + 5 x326 + 7 x32a + 7 x32b + 5 x32d + 5 x32e
 + 3 x358 + 10 x35b + 13 x35c + 12 x363 + 12 x364
 + 24 x36d + 5 x376 + 5 x377 + 6 x3b8 + 5 x378
 + 5 x379 + 6 x37d + 6 x37e + 6 x3b0 + 5 x37f
 + 5 x380 + 6 x384 + 6 x385 + 6 x3aa + 5 x386
 + 5 x387 + 6 x38b + 6 x38c + 6 x3a6 + 5 x38d
 + 5 x38e + 7 x392 + 7 x393 + 6 x3a1 + 5 x394
 + 5 x395 + 7 x399 + 7 x39a + 5 x39c + 5 x39d
 + 3 x3c7 + 10 x3ca + 13 x3cb + 12 x3d2 + 12 x3d3
 + 24 x3dc + 5 x3e5 + 5 x3e6 + 6 x427 + 5 x3e7
 + 5 x3e8 + 6 x3ec + 6 x3ed + 6 x41f + 5 x3ee
 + 5 x3ef + 6 x3f3 + 6 x3f4 + 6 x419 + 5 x3f5
 + 5 x3f6 + 6 x3fa + 6 x3fb + 6 x415 + 5 x3fc
 + 5 x3fd + 7 x401 + 7 x402 + 6 x410 + 5 x403
 + 5 x404 + 7 x408 + 7 x409 + 5 x40b + 5 x40c
 + 3 x436 + 10 x439 + 13 x43a + 12 x441 + 12 x442
 + 24 x44b + 5 x454 + 5 x455 + 6 x496 + 5 x456
 + 5 x457 + 6 x45b + 6 x45c + 6 x48e + 5 x45d
 + 5 x45e + 6 x462 + 6 x463 + 6 x488 + 5 x464
 + 5 x465 + 6 x469 + 6 x46a + 6 x484 + 5 x46b
 + 5 x46c + 7 x470 + 7 x471 + 6 x47f + 5 x472
 + 5 x473 + 7 x477 + 7 x478 + 5 x47a + 5 x47b
 + 3 x4a5 + 10 x4a8 + 13 x4a9 + 12 x4b0 + 12 x4b1
 + 24 x4ba + 5 x4c3 + 5 x4c4 + 6 x505 + 5 x4c5
 + 5 x4c6 + 6 x4ca + 6 x4cb + 6 x4fd + 5 x4cc
 + 5 x4cd + 6 x4d1 + 6 x4d2 + 6 x4f7 + 5 x4d3
 + 5 x4d4 + 6 x4d8 + 6 x4d9 + 6 x4f3 + 5 x4da
 + 5 x4db + 7 x4df + 7 x4e0 + 6 x4ee + 5 x4e1
 + 5 x4e2 + 7 x4e6 + 7 x4e7 + 5 x4e9 + 5 x4ea
 + 3 x514 + 3 x517 + 8 x518 + 7 x51a + 7 x51b
 + 5 x51c + 5 x51d + 12 x522 + 12 x523 + 24 x52c
 + 5 x535 + 5 x536 + 6 x55d + 5 x537 + 5 x538
 + 6 x53c + 6 x53d + 6 x557 + 5 x53e + 5 x53f
 + 6 x543 + 6 x544 + 6 x553 + 5 x545 + 5 x546
 + 6 x54a + 6 x54b + 6 x551 + 5 x54c + 5 x54d
 + 3 x569 + 3 x56c + 8 x56d + 7 x56f + 7 x570
 + 5 x571 + 5 x572 + 10 x585 + 10 x586 + 9 x58f
subject to
z = 0
o = 1
+1 x1 = +1
+1 x118 +1 x11f +1 x194 +1 x19b +1 x20 +1 x210 +1 x217 +1 x27
+1 x28f +1 x296 +1 x2f5 +1 x2fc +1 x3 +1 x364 +1 x36b +1 x3d3
+1 x3da +1 x442 +1 x449 +1 x4b1 +1 x4b8 +1 x523 +1 x52a +1 x586
+1 x58d +1 x58f +1 x9c +1 xa +1 xa3 = +1
+1 x1 -1 x2 -1 x3 = +0
+1 x2 -1 xa -1 xc = +0
-1 x15 -1 x16 +1 xc = +0
+1 x16 -1 x17 -1 x18 = +0
+1 x15 +1 x17 +1 x18 -1 x1d = +0
+1 x1d -1 x1f -1 x20 = +0
+1 x1f -1 x27 -1 x29 = +0
+1 x29 -1 x32 -1 x33 = +0
+1 x32 +1 x35 -1 x74 = +0
+1 x33 -1 x34 -1 x35 = +0
+1 x34 -1 x39 -1 x3a = +0
+1 x39 +1 x3c -1 x6c = +0
+1 x3a -1 x3b -1 x3c = +0
+1 x3b -1 x40 -1 x41 = +0
+1 x40 +1 x43 -1 x66 = +0
+1 x41 -1 x42 -1 x43 = +0
+1 x42 -1 x47 -1 x48 = +0
+1 x47 +1 x4a -1 x62 = +0
+1 x48 -1 x49 -1 x4a = +0
+1 x49 -1 x4e -1 x4f = +0
+1 x4e +1 x51 +1 x55 +1 x59 -1 x5d +0 x5e = +0
+1 x4f -1 x50 -1 x51 = +0
+1 x50 -1 x54 +1 x58 = +0
+1 x54 -1 x55 -1 x56 = +0
+1 x56 -1 x58 -1 x59 = +0
+1 x5d +1 x62 +1 x66 +1 x6c +1 x74 -1 x83 = +0
+1 x83 -1 x86 -1 x87 = +0
+1 x86 +1 x87 -1 x8c = +0
+1 x8c -1 x91 -1 x92 = +0
+1 x92 -1 x93 -1 x94 = +0
+1 x91 +1 x93 +1 x94 -1 x99 = +0
+1 x99 -1 x9b -1 x9c = +0
+1 x9b -1 xa3 -1 xa5 = +0
+1 xa5 -1 xae -1 xaf = +0
+1 xae +1 xb1 -1 xf0 = +0
+1 xaf -1 xb0 -1 xb1 = +0
+1 xb0 -1 xb5 -1 xb6 = +0
+1 xb5 +1 xb8 -1 xe8 = +0
+1 xb6 -1 xb7 -1 xb8 = +0
+1 xb7 -1 xbc -1 xbd = +0
+1 xbc +1 xbf -1 xe2 = +0
+1 xbd -1 xbe -1 xbf = +0
+1 xbe -1 xc3 -1 xc4 = +0
+1 xc3 +1 xc6 -1 xde = +0
+1 xc4 -1 xc5 -1 xc6 = +0
+1 xc5 -1 xca -1 xcb = +0
+1 xca +1 xcd +1 xd1 +1 xd5 -1 xd9 +0 xda = +0
+1 xcb -1 xcc -1 xcd = +0
+1 xcc -1 xd0 +1 xd4 = +0
+1 xd0 -1 xd1 -1 xd2 = +0
+1 xd2 -1 xd4 -1 xd5 = +0
+1 xd9 +1 xde +1 xe2 +1 xe8 +1 xf0 -1 xff = +0
-1 x102 -1 x103 +1 xff = +0
+1 x102 +1 x103 -1 x108 = +0
+1 x108 -1 x10d -1 x10e = +0
+1 x10e -1 x10f -1 x110 = +0
+1 x10d +1 x10f +1 x110 -1 x115 = +0
+1 x115 -1 x117 -1 x118 = +0
+1 x117 -1 x11f -1 x121 = +0
+1 x121 -1 x12a -1 x12b = +0
+1 x12a +1 x12d -1 x16c = +0
+1 x12b -1 x12c -1 x12d = +0
+1 x12c -1 x131 -1 x132 = +0
+1 x131 +1 x134 -1 x164 = +0
+1 x132 -1 x133 -1 x134 = +0
+1 x133 -1 x138 -1 x139 = +0
+1 x138 +1 x13b -1 x15e = +0
+1 x139 -1 x13a -1 x13b = +0
+1 x13a -1 x13f -1 x140 = +0
+1 x13f +1 x142 -1 x15a = +0
+1 x140 -1 x141 -1 x142 = +0
+1 x141 -1 x146 -1 x147 = +0
+1 x146 +1 x149 +1 x14d +1 x151 -1 x155 +0 x156 = +0
+1 x147 -1 x148 -1 x149 = +0
+1 x148 -1 x14c +1 x150 = +0
+1 x14c -1 x14d -1 x14e = +0
+1 x14e -1 x150 -1 x151 = +0
+1 x155 +1 x15a +1 x15e +1 x164 +1 x16c -1 x17b = +0
+1 x17b -1 x17e -1 x17f = +0
+1 x17e +1 x17f -1 x184 = +0
+1 x184 -1 x189 -1 x18a = +0
+1 x18a -1 x18b -1 x18c = +0
+1 x189 +1 x18b +1 x18c -1 x191 = +0
+1 x191 -1 x193 -1 x194 = +0
+1 x193 -1 x19b -1 x19d = +0
+1 x19d -1 x1a6 -1 x1a7 = +0
+1 x1a6 +1 x1a9 -1 x1e8 = +0
+1 x1a7 -1 x1a8 -1 x1a9 = +0
+1 x1a8 -1 x1ad -1 x1ae = +0
+1 x1ad +1 x1b0 -1 x1e0 = +0
+1 x1ae -1 x1af -1 x1b0 = +0
+1 x1af -1 x1b4 -1 x1b5 = +0
+1 x1b4 +1 x1b7 -1 x1da = +0
+1 x1b5 -1 x1b6 -1 x1b7 = +0
+1 x1b6 -1 x1bb -1 x1bc = +0
+1 x1bb +1 x1be -1 x1d6 = +0
+1 x1bc -1 x1bd -1 x1be = +0
+1 x1bd -1 x1c2 -1 x1c3 = +0
+1 x1c2 +1 x1c5 +1 x1c9 +1 x1cd -1 x1d1 +0 x1d2 = +0
+1 x1c3 -1 x1c4 -1 x1c5 = +0
+1 x1c4 -1 x1c8 +1 x1cc = +0
+1 x1c8 -1 x1c9 -1 x1ca = +0
+1 x1ca -1 x1cc -1 x1cd = +0
+1 x1d1 +1 x1d6 +1 x1da +1 x1e0 +1 x1e8 -1 x1f7 = +0
+1 x1f7 -1 x1fa -1 x1fb = +0
+1 x1fa +1 x1fb -1 x200 = +0
+1 x200 -1 x205 -1 x206 = +0
+1 x206 -1 x207 -1 x208 = +0
+1 x205 +1 x207 +1 x208 -1 x20d = +0
+1 x20d -1 x20f -1 x210 = +0
+1 x20f -1 x217 -1 x219 = +0
+1 x219 -1 x222 -1 x223 = +0
+1 x222 +1 x225 -1 x264 = +0
+1 x223 -1 x224 -1 x225 = +0
+1 x224 -1 x229 -1 x22a = +0
+1 x229 +1 x22c -1 x25c = +0
+1 x22a -1 x22b -1 x22c = +0
+1 x22b -1 x230 -1 x231 = +0
+1 x230 +1 x233 -1 x256 = +0
+1 x231 -1 x232 -1 x233 = +0
+1 x232 -1 x237 -1 x238 = +0
+1 x237 +1 x23a -1 x252 = +0
+1 x238 -1 x239 -1 x23a = +0
+1 x239 -1 x23d +1 x2b8 = +0
+1 x23d -1 x23e -1 x23f = +0
+1 x23e +1 x241 +1 x245 +1 x249 -1 x24d +0 x24e = +0
+1 x23f -1 x240 -1 x241 = +0
+1 x240 -1 x244 +1 x248 = +0
+1 x244 -1 x245 -1 x246 = +0
+1 x246 -1 x248 -1 x249 = +0
+1 x24d +1 x252 +1 x256 +1 x25c +1 x264 -1 x273 = +0
+1 x273 -1 x276 -1 x277 = +0
+1 x276 -1 x279 -1 x27a = +0
+1 x277 -1 x27b -1 x27c = +0
+1 x279 +1 x27b -1 x27f = +0
+1 x27a +1 x27c +1 x2e1 -1 x2e4 +0 x2e5 = +0
+1 x27f -1 x280 +1 x2e2 = +0
+1 x280 -1 x284 -1 x285 = +0
+1 x285 -1 x286 -1 x287 = +0
+1 x284 +1 x286 +1 x287 -1 x28c = +0
+1 x28c -1 x28e -1 x28f = +0
+1 x28e -1 x296 -1 x298 = +0
+1 x298 -1 x2a1 -1 x2a2 = +0
+1 x2a1 +1 x2a4 -1 x2c9 = +0
+1 x2a2 -1 x2a3 -1 x2a4 = +0
+1 x2a3 -1 x2a8 -1 x2a9 = +0
+1 x2a8 +1 x2ab -1 x2c3 = +0
+1 x2a9 -1 x2aa -1 x2ab = +0
+1 x2aa -1 x2af -1 x2b0 = +0
+1 x2af +1 x2b2 -1 x2bf = +0
+1 x2b0 -1 x2b1 -1 x2b2 = +0
+1 x2b1 -1 x2b6 -1 x2b7 = +0
+1 x2b6 +1 x2b9 -1 x2bd = +0
+1 x2b7 -1 x2b8 -1 x2b9 = +0
+1 x2bd +1 x2bf +1 x2c3 +1 x2c9 -1 x2d5 = +0
+1 x2d5 -1 x2d8 -1 x2d9 = +0
+1 x2d8 -1 x2db -1 x2dc = +0
+1 x2d9 -1 x2dd -1 x2de = +0
+1 x2db +1 x2dd -1 x2e2 = +0
+1 x2dc +1 x2de -1 x2e1 = +0
+1 x2e4 -1 x2f4 -1 x2f5 = +0
+1 x2f4 -1 x2fc -1 x2fe = +0
+1 x2fe -1 x307 -1 x308 = +0
+1 x307 +1 x30a -1 x349 = +0
+1 x308 -1 x309 -1 x30a = +0
+1 x309 -1 x30e -1 x30f = +0
+1 x30e +1 x311 -1 x341 = +0
+1 x30f -1 x310 -1 x311 = +0
+1 x310 -1 x315 -1 x316 = +0
+1 x315 +1 x318 -1 x33b = +0
+1 x316 -1 x317 -1 x318 = +0
+1 x317 -1 x31c -1 x31d = +0
+1 x31c +1 x31f -1 x337 = +0
+1 x31d -1 x31e -1 x31f = +0
+1 x31e -1 x323 -1 x324 = +0
+1 x323 +1 x326 +1 x32a +1 x32e -1 x332 +0 x333 = +0
+1 x324 -1 x325 -1 x326 = +0
+1 x325 -1 x329 +1 x32d = +0
+1 x329 -1 x32a -1 x32b = +0
+1 x32b -1 x32d -1 x32e = +0
+1 x332 +1 x337 +1 x33b +1 x341 +1 x349 -1 x358 = +0
+1 x358 -1 x35b -1 x35c = +0
+1 x35b +1 x35c -1 x361 = +0
+1 x361 -1 x363 -1 x364 = +0
+1 x363 -1 x36b -1 x36d = +0
+1 x36d -1 x376 -1 x377 = +0
+1 x376 +1 x379 -1 x3b8 = +0
+1 x377 -1 x378 -1 x379 = +0
+1 x378 -1 x37d -1 x37e = +0
+1 x37d +1 x380 -1 x3b0 = +0
+1 x37e -1 x37f -1 x380 = +0
+1 x37f -1 x384 -1 x385 = +0
+1 x384 +1 x387 -1 x3aa = +0
+1 x385 -1 x386 -1 x387 = +0
+1 x386 -1 x38b -1 x38c = +0
+1 x38b +1 x38e -1 x3a6 = +0
+1 x38c -1 x38d -1 x38e = +0
+1 x38d -1 x392 -1 x393 = +0
+1 x392 +1 x395 +1 x399 +1 x39d -1 x3a1 +0 x3a2 = +0
+1 x393 -1 x394 -1 x395 = +0
+1 x394 -1 x398 +1 x39c = +0
+1 x398 -1 x399 -1 x39a = +0
+1 x39a -1 x39c -1 x39d = +0
+1 x3a1 +1 x3a6 +1 x3aa +1 x3b0 +1 x3b8 -1 x3c7 = +0
+1 x3c7 -1 x3ca -1 x3cb = +0
+1 x3ca +1 x3cb -1 x3d0 = +0
+1 x3d0 -1 x3d2 -1 x3d3 = +0
+1 x3d2 -1 x3da -1 x3dc = +0
+1 x3dc -1 x3e5 -1 x3e6 = +0
+1 x3e5 +1 x3e8 -1 x427 = +0
+1 x3e6 -1 x3e7 -1 x3e8 = +0
+1 x3e7 -1 x3ec -1 x3ed = +0
+1 x3ec +1 x3ef -1 x41f = +0
+1 x3ed -1 x3ee -1 x3ef = +0
+1 x3ee -1 x3f3 -1 x3f4 = +0
+1 x3f3 +1 x3f6 -1 x419 = +0
+1 x3f4 -1 x3f5 -1 x3f6 = +0
+1 x3f5 -1 x3fa -1 x3fb = +0
+1 x3fa +1 x3fd -1 x415 = +0
+1 x3fb -1 x3fc -1 x3fd = +0
+1 x3fc -1 x401 -1 x402 = +0
+1 x401 +1 x404 +1 x408 +1 x40c -1 x410 +0 x411 = +0
+1 x402 -1 x403 -1 x404 = +0
+1 x403 -1 x407 +1 x40b = +0
+1 x407 -1 x408 -1 x409 = +0
+1 x409 -1 x40b -1 x40c = +0
+1 x410 +1 x415 +1 x419 +1 x41f +1 x427 -1 x436 = +0
+1 x436 -1 x439 -1 x43a = +0
+1 x439 +1 x43a -1 x43f = +0
+1 x43f -1 x441 -1 x442 = +0
+1 x441 -1 x449 -1 x44b = +0
+1 x44b -1 x454 -1 x455 = +0
+1 x454 +1 x457 -1 x496 = +0
+1 x455 -1 x456 -1 x457 = +0
+1 x456 -1 x45b -1 x45c = +0
+1 x45b +1 x45e -1 x48e = +0
+1 x45c -1 x45d -1 x45e = +0
+1 x45d -1 x462 -1 x463 = +0
+1 x462 +1 x465 -1 x488 = +0
+1 x463 -1 x464 -1 x465 = +0
+1 x464 -1 x469 -1 x46a = +0
+1 x469 +1 x46c -1 x484 = +0
+1 x46a -1 x46b -1 x46c = +0
+1 x46b -1 x470 -1 x471 = +0
+1 x470 +1 x473 +1 x477 +1 x47b -1 x47f +0 x480 = +0
+1 x471 -1 x472 -1 x473 = +0
+1 x472 -1 x476 +1 x47a = +0
+1 x476 -1 x477 -1 x478 = +0
+1 x478 -1 x47a -1 x47b = +0
+1 x47f +1 x484 +1 x488 +1 x48e +1 x496 -1 x4a5 = +0
+1 x4a5 -1 x4a8 -1 x4a9 = +0
+1 x4a8 +1 x4a9 -1 x4ae = +0
+1 x4ae -1 x4b0 -1 x4b1 = +0
+1 x4b0 -1 x4b8 -1 x4ba = +0
+1 x4ba -1 x4c3 -1 x4c4 = +0
+1 x4c3 +1 x4c6 -1 x505 = +0
+1 x4c4 -1 x4c5 -1 x4c6 = +0
+1 x4c5 -1 x4ca -1 x4cb = +0
+1 x4ca +1 x4cd -1 x4fd = +0
+1 x4cb -1 x4cc -1 x4cd = +0
+1 x4cc -1 x4d1 -1 x4d2 = +0
+1 x4d1 +1 x4d4 -1 x4f7 = +0
+1 x4d2 -1 x4d3 -1 x4d4 = +0
+1 x4d3 -1 x4d8 -1 x4d9 = +0
+1 x4d8 +1 x4db -1 x4f3 = +0
+1 x4d9 -1 x4da -1 x4db = +0
+1 x4da -1 x4de +1 x54c = +0
+1 x4de -1 x4df -1 x4e0 = +0
+1 x4df +1 x4e2 +1 x4e6 +1 x4ea -1 x4ee +0 x4ef = +0
+1 x4e0 -1 x4e1 -1 x4e2 = +0
+1 x4e1 -1 x4e5 +1 x4e9 = +0
+1 x4e5 -1 x4e6 -1 x4e7 = +0
+1 x4e7 -1 x4e9 -1 x4ea = +0
+1 x4ee +1 x4f3 +1 x4f7 +1 x4fd +1 x505 -1 x514 = +0
+1 x514 -1 x517 -1 x518 = +0
+1 x517 -1 x51a -1 x51b = +0
+1 x518 -1 x51c -1 x51d = +0
+1 x51a +1 x51c -1 x520 = +0
+1 x51b +1 x51d +1 x575 -1 x578 +0 x579 = +0
+1 x520 -1 x521 +1 x576 = +0
+1 x521 -1 x522 -1 x523 = +0
+1 x522 -1 x52a -1 x52c = +0
+1 x52c -1 x535 -1 x536 = +0
+1 x535 +1 x538 -1 x55d = +0
+1 x536 -1 x537 -1 x538 = +0
+1 x537 -1 x53c -1 x53d = +0
+1 x53c +1 x53f -1 x557 = +0
+1 x53d -1 x53e -1 x53f = +0
+1 x53e -1 x543 -1 x544 = +0
+1 x543 +1 x546 -1 x553 = +0
+1 x544 -1 x545 -1 x546 = +0
+1 x545 -1 x54a -1 x54b = +0
+1 x54a +1 x54d -1 x551 = +0
+1 x54b -1 x54c -1 x54d = +0
+1 x551 +1 x553 +1 x557 +1 x55d -1 x569 = +0
+1 x569 -1 x56c -1 x56d = +0
+1 x56c -1 x56f -1 x570 = +0
+1 x56d -1 x571 -1 x572 = +0
+1 x56f +1 x571 -1 x576 = +0
+1 x570 +1 x572 -1 x575 = +0
+1 x578 -1 x585 -1 x586 = +0
+1 x585 -1 x58d -1 x58f = +0
-1 x2 -1 x3 +1 xc <= +0
-1 x585 -1 x586 +1 x58f <= +0
-1 x58f <= +0
+1 x2e4 -1 xc <= +0
-1 x2e4 +1 x578 <= +0
-1 x29 +1 x5d +1 x62 +1 x66 +1 x6c +1 x74 = +0
-1 xa5 +1 xd9 +1 xde +1 xe2 +1 xe8 +1 xf0 = +0
-1 x121 +1 x155 +1 x15a +1 x15e +1 x164 +1 x16c = +0
-1 x19d +1 x1d1 +1 x1d6 +1 x1da +1 x1e0 +1 x1e8 = +0
-1 x219 +1 x24d +1 x252 +1 x256 +1 x25c +1 x264 -1 x298 +1 x2bd
+1 x2bf +1 x2c3 +1 x2c9 = +0
-1 x2fe +1 x332 +1 x337 +1 x33b +1 x341 +1 x349 = +0
-1 x36d +1 x3a1 +1 x3a6 +1 x3aa +1 x3b0 +1 x3b8 = +0
-1 x3dc +1 x410 +1 x415 +1 x419 +1 x41f +1 x427 = +0
-1 x44b +1 x47f +1 x484 +1 x488 +1 x48e +1 x496 = +0
-1 x4ba +1 x4ee +1 x4f3 +1 x4f7 +1 x4fd +1 x505 -1 x52c +1 x551
+1 x553 +1 x557 +1 x55d = +0
+1 x1d -1 xc = +0
-1 x8c +1 x99 = +0
-1 x108 +1 x115 = +0
-1 x184 +1 x191 = +0
-1 x200 +1 x20d -1 x280 +1 x28c = +0
-1 x1f -1 x20 +1 x29 <= +0
-1 x9b -1 x9c +1 xa5 <= +0
-1 x117 -1 x118 +1 x121 <= +0
-1 x193 -1 x194 +1 x19d <= +0
-1 x20f -1 x210 +1 x219 -1 x28e -1 x28f +1 x298 <= +0
-1 x29 +1 x83 = +0
-1 xa5 +1 xff = +0
-1 x121 +1 x17b = +0
-1 x19d +1 x1f7 = +0
-1 x219 +1 x273 -1 x298 +1 x2d5 = +0
+1 x2e4 -1 x8c <= +0
-1 x108 +1 x2e4 <= +0
-1 x184 +1 x2e4 <= +0
-1 x200 +1 x2e4 <= +0
-1 x27f -1 x2e2 +1 x2e5 <= +0
-1 x2f4 -1 x2f5 +1 x2fe <= +0
-1 x363 -1 x364 +1 x36d <= +0
-1 x3d2 -1 x3d3 +1 x3dc <= +0
-1 x441 -1 x442 +1 x44b <= +0
-1 x4b0 -1 x4b1 +1 x4ba -1 x522 -1 x523 +1 x52c <= +0
-1 x2fe +1 x358 = +0
-1 x36d +1 x3c7 = +0
-1 x3dc +1 x436 = +0
-1 x44b +1 x4a5 = +0
-1 x4ba +1 x514 -1 x52c +1 x569 = +0
-1 x361 +1 x578 <= +0
-1 x3d0 +1 x578 <= +0
-1 x43f +1 x578 <= +0
-1 x4ae +1 x578 <= +0
-1 x520 -1 x576 +1 x579 <= +0
-1 x34 +1 x5d +1 x62 +1 x66 +1 x6c = +0
-1 x3b +1 x5d +1 x62 +1 x66 = +0
-1 x42 +1 x5d +1 x62 = +0
-1 x49 +1 x5d = +0
-1 x50 -1 x58 +1 x5e = +0
-1 xb0 +1 xd9 +1 xde +1 xe2 +1 xe8 = +0
-1 xb7 +1 xd9 +1 xde +1 xe2 = +0
-1 xbe +1 xd9 +1 xde = +0
-1 xc5 +1 xd9 = +0
-1 xcc -1 xd4 +1 xda = +0
-1 x12c +1 x155 +1 x15a +1 x15e +1 x164 = +0
-1 x133 +1 x155 +1 x15a +1 x15e = +0
-1 x13a +1 x155 +1 x15a = +0
-1 x141 +1 x155 = +0
-1 x148 -1 x150 +1 x156 = +0
-1 x1a8 +1 x1d1 +1 x1d6 +1 x1da +1 x1e0 = +0
-1 x1af +1 x1d1 +1 x1d6 +1 x1da = +0
-1 x1b6 +1 x1d1 +1 x1d6 = +0
-1 x1bd +1 x1d1 = +0
-1 x1c4 -1 x1cc +1 x1d2 = +0
-1 x224 +1 x24d +1 x252 +1 x256 +1 x25c -1 x2a3 +1 x2bd +1 x2bf
+1 x2c3 = +0
-1 x22b +1 x24d +1 x252 +1 x256 -1 x2aa +1 x2bd +1 x2bf = +0
-1 x232 +1 x24d +1 x252 -1 x2b1 +1 x2bd = +0
-1 x239 +1 x24d -1 x2b8 = +0
-1 x240 -1 x248 +1 x24e = +0
-1 x309 +1 x332 +1 x337 +1 x33b +1 x341 = +0
-1 x310 +1 x332 +1 x337 +1 x33b = +0
-1 x317 +1 x332 +1 x337 = +0
-1 x31e +1 x332 = +0
-1 x325 -1 x32d +1 x333 = +0
-1 x378 +1 x3a1 +1 x3a6 +1 x3aa +1 x3b0 = +0
-1 x37f +1 x3a1 +1 x3a6 +1 x3aa = +0
-1 x386 +1 x3a1 +1 x3a6 = +0
-1 x38d +1 x3a1 = +0
-1 x394 -1 x39c +1 x3a2 = +0
-1 x3e7 +1 x410 +1 x415 +1 x419 +1 x41f = +0
-1 x3ee +1 x410 +1 x415 +1 x419 = +0
-1 x3f5 +1 x410 +1 x415 = +0
-1 x3fc +1 x410 = +0
-1 x403 -1 x40b +1 x411 = +0
-1 x456 +1 x47f +1 x484 +1 x488 +1 x48e = +0
-1 x45d +1 x47f +1 x484 +1 x488 = +0
-1 x464 +1 x47f +1 x484 = +0
-1 x46b +1 x47f = +0
-1 x472 -1 x47a +1 x480 = +0
-1 x4c5 +1 x4ee +1 x4f3 +1 x4f7 +1 x4fd -1 x537 +1 x551 +1 x553
+1 x557 = +0
-1 x4cc +1 x4ee +1 x4f3 +1 x4f7 -1 x53e +1 x551 +1 x553 = +0
-1 x4d3 +1 x4ee +1 x4f3 -1 x545 +1 x551 = +0
-1 x4da +1 x4ee -1 x54c = +0
-1 x4e1 -1 x4e9 +1 x4ef = +0
+1 x108 +1 x184 +1 x200 +1 x27f +1 x2e2 +1 x8c -16 xc <= +0
-12 x200 +1 x27f +1 x2e2 <= +0
+1 x27f +1 x2e2 -12 xc <= +0
-16 x2e4 +1 x361 +1 x3d0 +1 x43f +1 x4ae +1 x520 +1 x576 <= +0
-12 x4ae +1 x520 +1 x576 <= +0
-12 x2e4 +1 x520 +1 x576 <= +0
-3 x29 +1 x34 +1 x3b +1 x42 +1 x49 +1 x50 +1 x58 <= +0
+1 x50 +1 x58 <= +0
+1 x50 +1 x58 <= +0
-3 xa5 +1 xb0 +1 xb7 +1 xbe +1 xc5 +1 xcc +1 xd4 <= +0
+1 xcc +1 xd4 <= +0
+1 xcc +1 xd4 <= +0
-3 x121 +1 x12c +1 x133 +1 x13a +1 x141 +1 x148 +1 x150 <= +0
+1 x148 +1 x150 <= +0
+1 x148 +1 x150 <= +0
-3 x19d +1 x1a8 +1 x1af +1 x1b6 +1 x1bd +1 x1c4 +1 x1cc <= +0
+1 x1c4 +1 x1cc <= +0
+1 x1c4 +1 x1cc <= +0
-3 x219 +1 x224 +1 x22b +1 x232 +1 x239 +1 x240 +1 x248 -3 x298
+1 x2a3 +1 x2aa +1 x2b1 +1 x2b8 <= +0
+1 x240 +1 x248 <= +0
+1 x240 +1 x248 <= +0
-3 x2fe +1 x309 +1 x310 +1 x317 +1 x31e +1 x325 +1 x32d <= +0
+1 x325 +1 x32d <= +0
+1 x325 +1 x32d <= +0
-3 x36d +1 x378 +1 x37f +1 x386 +1 x38d +1 x394 +1 x39c <= +0
+1 x394 +1 x39c <= +0
+1 x394 +1 x39c <= +0
-3 x3dc +1 x3e7 +1 x3ee +1 x3f5 +1 x3fc +1 x403 +1 x40b <= +0
+1 x403 +1 x40b <= +0
+1 x403 +1 x40b <= +0
-3 x44b +1 x456 +1 x45d +1 x464 +1 x46b +1 x472 +1 x47a <= +0
+1 x472 +1 x47a <= +0
+1 x472 +1 x47a <= +0
-3 x4ba +1 x4c5 +1 x4cc +1 x4d3 +1 x4da +1 x4e1 +1 x4e9 -3 x52c
+1 x537 +1 x53e +1 x545 +1 x54c <= +0
+1 x4e1 +1 x4e9 <= +0
+1 x4e1 +1 x4e9 <= +0
general
z
o
x1
x2
x3
xc
xa
x15
x16
x17
x18
x1d
x1f
x20
x29
x27
x32
x33
x74
x34
x35
x39
x3a
x6c
x3b
x3c
x40
x41
x66
x42
x43
x47
x48
x62
x49
x4a
x4e
x4f
x5d
x5e
x50
x51
x54
x55
x56
x58
x59
x83
x86
x87
x8c
x91
x92
x93
x94
x99
x9b
x9c
xa5
xa3
xae
xaf
xf0
xb0
xb1
xb5
xb6
xe8
xb7
xb8
xbc
xbd
xe2
xbe
xbf
xc3
xc4
xde
xc5
xc6
xca
xcb
xd9
xda
xcc
xcd
xd0
xd1
xd2
xd4
xd5
xff
x102
x103
x108
x10d
x10e
x10f
x110
x115
x117
x118
x121
x11f
x12a
x12b
x16c
x12c
x12d
x131
x132
x164
x133
x134
x138
x139
x15e
x13a
x13b
x13f
x140
x15a
x141
x142
x146
x147
x155
x156
x148
x149
x14c
x14d
x14e
x150
x151
x17b
x17e
x17f
x184
x189
x18a
x18b
x18c
x191
x193
x194
x19d
x19b
x1a6
x1a7
x1e8
x1a8
x1a9
x1ad
x1ae
x1e0
x1af
x1b0
x1b4
x1b5
x1da
x1b6
x1b7
x1bb
x1bc
x1d6
x1bd
x1be
x1c2
x1c3
x1d1
x1d2
x1c4
x1c5
x1c8
x1c9
x1ca
x1cc
x1cd
x1f7
x1fa
x1fb
x200
x205
x206
x207
x208
x20d
x20f
x210
x219
x217
x222
x223
x264
x224
x225
x229
x22a
x25c
x22b
x22c
x230
x231
x256
x232
x233
x237
x238
x252
x239
x23a
x23d
x23e
x23f
x24d
x24e
x240
x241
x244
x245
x246
x248
x249
x273
x276
x277
x279
x27a
x27b
x27c
x27f
x2e4
x2e5
x280
x284
x285
x286
x287
x28c
x28e
x28f
x298
x296
x2a1
x2a2
x2c9
x2a3
x2a4
x2a8
x2a9
x2c3
x2aa
x2ab
x2af
x2b0
x2bf
x2b1
x2b2
x2b6
x2b7
x2bd
x2b8
x2b9
x2d5
x2d8
x2d9
x2db
x2dc
x2dd
x2de
x2e2
x2e1
x2f4
x2f5
x2fe
x2fc
x307
x308
x349
x309
x30a
x30e
x30f
x341
x310
x311
x315
x316
x33b
x317
x318
x31c
x31d
x337
x31e
x31f
x323
x324
x332
x333
x325
x326
x329
x32a
x32b
x32d
x32e
x358
x35b
x35c
x361
x363
x364
x36d
x36b
x376
x377
x3b8
x378
x379
x37d
x37e
x3b0
x37f
x380
x384
x385
x3aa
x386
x387
x38b
x38c
x3a6
x38d
x38e
x392
x393
x3a1
x3a2
x394
x395
x398
x399
x39a
x39c
x39d
x3c7
x3ca
x3cb
x3d0
x3d2
x3d3
x3dc
x3da
x3e5
x3e6
x427
x3e7
x3e8
x3ec
x3ed
x41f
x3ee
x3ef
x3f3
x3f4
x419
x3f5
x3f6
x3fa
x3fb
x415
x3fc
x3fd
x401
x402
x410
x411
x403
x404
x407
x408
x409
x40b
x40c
x436
x439
x43a
x43f
x441
x442
x44b
x449
x454
x455
x496
x456
x457
x45b
x45c
x48e
x45d
x45e
x462
x463
x488
x464
x465
x469
x46a
x484
x46b
x46c
x470
x471
x47f
x480
x472
x473
x476
x477
x478
x47a
x47b
x4a5
x4a8
x4a9
x4ae
x4b0
x4b1
x4ba
x4b8
x4c3
x4c4
x505
x4c5
x4c6
x4ca
x4cb
x4fd
x4cc
x4cd
x4d1
x4d2
x4f7
x4d3
x4d4
x4d8
x4d9
x4f3
x4da
x4db
x4de
x4df
x4e0
x4ee
x4ef
x4e1
x4e2
x4e5
x4e6
x4e7
x4e9
x4ea
x514
x517
x518
x51a
x51b
x51c
x51d
x520
x578
x579
x521
x522
x523
x52c
x52a
x535
x536
x55d
x537
x538
x53c
x53d
x557
x53e
x53f
x543
x544
x553
x545
x546
x54a
x54b
x551
x54c
x54d
x569
x56c
x56d
x56f
x570
x571
x572
x576
x575
x585
x586
x58f
x58d
end
